
******************************************************************************
This program contains Ipopt, a library for large-scale nonlinear optimization.
 Ipopt is released as open source code under the Eclipse Public License (EPL).
         For more information visit http://projects.coin-or.org/Ipopt

This version of Ipopt was compiled from source code available at
    https://github.com/IDAES/Ipopt as part of the Institute for the Design of
    Advanced Energy Systems Process Systems Engineering Framework (IDAES PSE
    Framework) Copyright (c) 2018-2019. See https://github.com/IDAES/idaes-pse.

This version of Ipopt was compiled using HSL, a collection of Fortran codes
    for large-scale scientific computation.  All technical papers, sales and
    publicity material resulting from use of the HSL codes within IPOPT must
    contain the following acknowledgement:
        HSL, a collection of Fortran codes for large-scale scientific
        computation. See http://www.hsl.rl.ac.uk.
******************************************************************************

This is Ipopt version 3.13.2, running with linear solver ma27.

Number of nonzeros in equality constraint Jacobian...:      808
Number of nonzeros in inequality constraint Jacobian.:        0
Number of nonzeros in Lagrangian Hessian.............:      702

Total number of variables............................:      351
                     variables with only lower bounds:      108
                variables with lower and upper bounds:      189
                     variables with only upper bounds:        0
Total number of equality constraints.................:      350
Total number of inequality constraints...............:        0
        inequality constraints with only lower bounds:        0
   inequality constraints with lower and upper bounds:        0
        inequality constraints with only upper bounds:        0

iter    objective    inf_pr   inf_du lg(mu)  ||d||  lg(rg) alpha_du alpha_pr  ls
   0  0.0000000e+00 4.44e-01 1.11e-16  -1.0 0.00e+00    -  0.00e+00 0.00e+00   0
   1  1.5680893e+00 3.20e-01 9.04e+03  -1.0 2.59e+05    -  6.93e-01 2.95e-01h  1
   2  1.6560338e+00 3.17e-01 9.09e+03  -1.0 2.32e+05    -  7.53e-01 1.09e-02h  1
   3  2.5021456e+01 4.36e-02 1.22e+04  -1.0 2.56e+05    -  7.58e-01 9.90e-01h  1
   4  3.1201555e+01 1.36e-03 7.26e+02  -1.0 3.94e+04    -  9.55e-01 9.90e-01h  1
   5  3.1382713e+01 1.46e-05 5.92e+00  -1.0 1.13e+03    -  9.90e-01 9.90e-01h  1
   6  3.1383009e+01 1.45e-05 1.41e+07  -1.0 9.62e+02    -  9.90e-01 3.87e-03f  9
   7  3.1384807e+01 1.43e-05 2.80e+07  -1.0 1.47e+03    -  9.90e-01 1.55e-02f  7
   8  3.1499034e+01 8.61e-05 4.26e+05  -1.0 1.47e+03    -  1.00e+00 9.90e-01H  1
   9  3.1498362e+01 8.43e-07 1.46e+07  -1.0 8.91e+00    -  1.00e+00 9.90e-01h  1
iter    objective    inf_pr   inf_du lg(mu)  ||d||  lg(rg) alpha_du alpha_pr  ls
  10  3.1498365e+01 8.43e-09 1.46e+09  -1.0 3.03e-02    -  1.00e+00 9.90e-01h  1
  11  3.1498365e+01 8.45e-11 1.46e+11  -1.0 3.02e-04    -  1.00e+00 9.90e-01h  1
In iteration 11, 27 Slacks too small, adjusting variable bounds
  12  3.1498365e+01 1.50e-12 1.46e+13  -1.0 3.01e-06    -  1.00e+00 9.90e-01h  1
  13  3.1498365e+01 1.05e-12 7.24e+14  -1.0 4.23e-07    -  1.00e+00 5.00e-01h  2
  14  3.1498365e+01 7.29e-13 8.79e-02  -1.0 4.96e-07    -  1.00e+00 1.00e+00H  1
  15  3.1498361e+01 1.19e-12 1.47e+13  -9.0 1.72e+03    -  9.98e-01 2.62e-05f 16
  16  3.1498361e+01 6.80e-13 1.48e+13  -9.0 1.48e+03    -  9.99e-01 2.38e-07f 23
  17  3.1498361e+01 7.67e-13 1.48e+13  -9.0 1.47e+03    -  1.00e+00 7.45e-09f 28
  18  3.1498361e+01 7.94e-13 1.48e+13  -9.0 1.47e+03    -  1.00e+00 4.77e-07f 22
  19  3.1498361e+01 7.37e-13 1.48e+13  -9.0 1.47e+03    -  1.00e+00 2.27e-13h 43
iter    objective    inf_pr   inf_du lg(mu)  ||d||  lg(rg) alpha_du alpha_pr  ls
  20  3.1383396e+01 9.87e-04 1.85e+00  -9.0 1.47e+03    -  1.00e+00 1.00e+00f  1
  21  3.1382134e+01 4.66e-09 3.58e-04  -9.0 1.54e+01    -  1.00e+00 1.00e+00h  1
  22  3.1382134e+01 1.74e-12 2.91e-11  -9.0 1.67e-04    -  1.00e+00 1.00e+00h  1

Number of Iterations....: 22

                                   (scaled)                 (unscaled)
Objective...............:   3.1382134029906013e+01    3.1382134029906013e+01
Dual infeasibility......:   2.9103830456733704e-11    2.9103830456733704e-11
Constraint violation....:   1.7408297026122455e-12    1.7408297026122455e-12
Complementarity.........:   9.0909091075285568e-10    9.0909091075285568e-10
Overall NLP error.......:   1.2183563485218034e-11    9.0909091075285568e-10


Number of objective function evaluations             = 194
Number of objective gradient evaluations             = 23
Number of equality constraint evaluations            = 194
Number of inequality constraint evaluations          = 0
Number of equality constraint Jacobian evaluations   = 23
Number of inequality constraint Jacobian evaluations = 0
Number of Lagrangian Hessian evaluations             = 22
Total CPU secs in IPOPT (w/o function evaluations)   =      0.058
Total CPU secs in NLP function evaluations           =      1.332

EXIT: Optimal Solution Found.
